#SOLVERNAME# PAJ_Gurobi_MOSEK_msd_noscale
#SOLVER# Pajarito.PajaritoSolver(3, 600.0, 1.0e-5, true, Gurobi.GurobiSolver(nothing, Any[(:OutputFlag, 1), (:Threads, 8), (:IntFeasTol, 1.0e-9), (:FeasibilityTol, 1.0e-8), (:MIPGap, 1.0e-5)]), Pajarito.UnsetSolver(), 0, false, true, Mosek.MosekSolver(Any[(:LOG, 0), (:NUM_THREADS, 8), (:MSK_DPAR_INTPNT_CO_TOL_REL_GAP, 1.0e-10), (:MSK_DPAR_INTPNT_CO_TOL_PFEAS, 1.0e-10), (:MSK_DPAR_INTPNT_CO_TOL_DFEAS, 1.0e-10), (:MSK_DPAR_INTPNT_CO_TOL_NEAR_REL, 1000.0)]), true, true, false, false, true, false, false, true, false, true, true, true, true, false, false, 10.0, true, false, false, true, 1.0e-12, 1.0e-8, false, "")
#INSTANCE# estein4_A.cbf.gz
#TIMELIMIT# 600.0

Problem dimensions:
       variables |      67
     constraints |     108
   nonzeros in A |     128

Cones summary:
Cone             | Count   | Min dim.  | Max dim. 
    Second order |       9 |         3 |         3

Variable types:
      continuous |      58
         integer |       9

Transforming data...               0.00s

Creating conic subproblem...       0.00s

Building MIP model...              0.00s

Solving conic relaxation...        0.00s
 - Relaxation status    =        Optimal
 - Relaxation bound     =       0.000003
Academic license - for non-commercial use only
Optimize a model with 211 rows, 85 columns and 419 nonzeros
Variable types: 76 continuous, 9 integer (0 binary)
Coefficient statistics:
  Matrix range     [6e-03, 4e+00]
  Objective range  [1e+00, 1e+00]
  Bounds range     [0e+00, 0e+00]
  RHS range        [3e-01, 1e+00]
Presolve removed 100 rows and 32 columns
Presolve time: 0.00s
Presolved: 111 rows, 53 columns, 357 nonzeros
Variable types: 49 continuous, 4 integer (4 binary)

Root relaxation: objective 3.473950e-06, 60 iterations, 0.00 seconds

    Nodes    |    Current Node    |     Objective Bounds      |     Work
 Expl Unexpl |  Obj  Depth IntInf | Incumbent    BestBd   Gap | It/Node Time

     0     0    0.00000    0    4          -    0.00000      -     -    0s
     0     0    0.17228    0    4          -    0.17228      -     -    0s
     0     0    0.17259    0    4          -    0.17259      -     -    0s
     0     0    0.27993    0    4          -    0.27993      -     -    0s
     0     0    0.30907    0    4          -    0.30907      -     -    0s
     0     2    0.30907    0    4          -    0.30907      -     -    0s
*   75    12               4       0.9266236    0.80137  13.5%  13.4    0s

Cutting planes:
  Gomory: 4
  Lazy constraints: 172

Explored 79 nodes (1124 simplex iterations) in 0.07 seconds
Thread count was 8 (of 16 available processors)

Solution count 1: 0.926624 

Solve interrupted
Best objective 9.266236036356e-01, best bound 8.013654952654e-01, gap 13.5177%

Starting MIP-solver-driven algorithm

MIP-solver-driven algorithm summary:
 - Status               =        Optimal
 - Best feasible        =  +8.013655e-01
 - Best bound           =  +8.013655e-01
 - Relative opt. gap    =      9.054e-12
 - Total time (s)       =       7.65e-02

Timers (s):
 - Setup                =   2.06e-03
 -- Transform data      =   1.27e-04
 -- Create conic data   =   1.55e-03
 -- Create MIP data     =   3.77e-04
 - Algorithm            =   7.44e-02
 -- Solve relaxation    =   4.76e-03
 -- Get relaxation cuts =   6.20e-05
 -- MIP solver driving  =   6.92e-02
 -- Solve subproblems   =   2.65e-02
 -- Get subproblem cuts =   1.37e-03
 -- Get separation cuts =   1.04e-03

Counters:
 - Lazy callbacks       =    34
 -- Integer repeats     =    25
 -- Conic subproblems   =    10
 --- Infeasible         =     0
 --- Optimal            =    10
 --- Suboptimal         =     0
 --- UserLimit          =     0
 --- ConicFailure       =     0
 --- Other status       =     0
 -- Feasible solutions  =    12
 --- From subproblems   =    10
 --- In lazy callback   =     2
 - Heuristic callbacks  =    70
 -- Solutions passed    =     4

Solution returned by conic solver

Rounds of full separation/subproblem cuts, and count of cuts added:
Cone             | Subp.  | Sep.   | Total  | Relax. | Viol. 
    Second order |    177 |     65 |    172 |     13 |    172

0 numerically unstable disaggregated SOC cuts

Distance to feasibility (negative indicates strict feasibility):
Cone             | Variable  | Constraint
          Linear |  0.00e+00 |  1.79e-10
    Second order | -2.55e-12 |        NA

Distance to integrality of integer/binary variables:
         integer |  0.00e+00

#STATUS# Optimal
#OBJVAL# 0.8013654952726907
#OBJBOUND# 0.8013654952654352
#NODECOUNT# 79
#TIMESOLVER# 0.07649493217468262
#TIMEALL# 0.07700300216674805
#SOLUTION# [0.41827084520033764,0.4979025813092557,0.6604751615937712,0.3835359071328114,0.493351,0.4001181548364807,-0.004925581281556942,0.19213051087513272,0.15791383849023358,0.10944109292759265,0.1490055402257073,-0.012270845164877526,0.1484994187722647,0.493351,-0.25447516159437183,0.26286609286555956,0.493351,0.2490411548376484,-0.19710458128007174,0.08301989906481641,0.006836838405761782,-0.08273790715781355,0.10936132889528027,-0.08988484520033764,-0.062294581309255685,0.493351,-0.3320891615937711,0.05207209286718861,0.26784821621175403,-0.24220431621458802,0.11436667404467717,-0.0,0.19213051087513272,0.14900554022570733,-0.0,-0.0,0.08301989906481644,0.10936132889528027,-0.0,0.26784821621175403,-0.0,1.0,1.0,0.0,-0.0,1.0,1.0,0.0,1.0,1.0,0.0,0.0,1.0,1.0,0.0,0.0,1.0,0.0,0.0,0.30122048912486726,0.34434545977429265,0.0,0.0,0.41033110093518355,0.3839896711047197,0.0,0.22550278378824595]
